
  32    4
  10   10   10   10

   0   0   0   0   0  12 2 4 5 6 7 8 10 11 12 15 16 22 
   8   1   1   1   0   5 30 28 20 14 3 
   9   6   5   3   0   6 31 29 27 21 17 9 
  10   0   4   4   1   6 27 26 21 20 18 17 
   5   5   6   0   5   6 30 29 26 25 20 18 
   7   3   4   6   0   4 28 25 19 13 
   7   0   6   6   6   6 27 26 25 24 20 19 
   9   2   3   0   5   4 28 21 20 17 
   9   5   0   6   3   3 25 19 13 
   5   0   4   4   5   2 29 13 
   6   6   5   0   3   4 30 27 23 18 
   5   6   3   0   3   4 26 25 23 18 
   3   6   4   3   0   3 26 23 18 
   7   0   4   3   7   3 25 24 19 
   9   0   7   4   2   3 31 28 20 
   1   0   7   3   6   3 26 25 19 
   1   0   3   7   3   3 25 24 23 
   7   0   8   3   4   1 24 
   8   3   0   7   9   1 23 
   1   5   2   5   0   1 23 
  10   2   0   4   3   1 24 
   3   5   1   0   4   1 25 
   6   1   4   0   3   1 32
   7   5   0   5   4   1 32
   1   5   3   0   2   1 32
   8   3   3   2   0   1 32
   4   4   2   3   0   1 32
   8   1   1   2   0   1 32
   2   3   5   4   0   1 32
   2   7   5   0   3   1 32
   4   4   0   3   3   1 32
   0   0   0   0   0   0 
